Route 1: 67 63 74 62 66 69 72 61 64 68 65 49 55 54 53 56 58 60 59 57 40 44 46 45 51 52 41 42 50 47 43 48 8 10
Route 2: 20 22 24 6 29 30 27 32 34 36 33 31 35 37 38 39 28 26 23 17 18 19 16 14 12 15 13 9 11 25 21 90
Route 3: 93 75 5 2 1 99 100 97 92 94 95 98 7 3 4 89 91 88 84 83 86 82 85 76 71 70 73 80 79 81 78 77 87 96
Vehicles: 3
Distance: 702.08
